Route #1: 4 30 28 62 2
Route #2: 45 29 5 15 57 54 13 27
Route #3: 48 37 20 60 36 47 21
Route #4: 61 22 64 42 41 43 1 63
Route #5: 6 33 56 23 16 51 17
Route #6: 49 24 18 50 25 55 31 39
Route #7: 3 44 32 9 40
Route #8: 12 58 10 38 11
Route #9: 35 53 14 59 19 8
Route #10: 34 52 46 7 26
Cost 825